123021
135 123 114 102 113 112 103 115 122 126 127 110 111 134 125 124 0 12 21 22 23 32 20 13 9 25 24 1 10 11 33 34 46 55 64 56 57 54 47 42 59 58 65 44 45 35 43 53 19 116 93 92 81 88 100 91 90 101 89 80 71 79 70 78 77 76 82 69 83 87 94 95 86 84 68 73 97 74 75 104 117 121 133 128 129 132 120 118 107 106 131 130 105 108 109 2 14 18 26 27 17 15 3 5 4 29 28 30 6 7 31 36 48 52 66 60 61 51 49 62 67 41 40 37 39 38 63 50 16 119 85 72 96 98 99 8 
